(set-info :smt-lib-version 2.6)
(set-logic QF_BV)
(set-info :source |
 Patrice Godefroid, SAGE (systematic dynamic test generation)
 For more information: http://research.microsoft.com/en-us/um/people/pg/public_psfiles/ndss2008.pdf
|)
(set-info :category "industrial")
(set-info :status unsat)
(declare-fun T4_132 () (_ BitVec 32))
(declare-fun T1_132 () (_ BitVec 8))
(declare-fun T1_133 () (_ BitVec 8))
(declare-fun T1_134 () (_ BitVec 8))
(declare-fun T1_135 () (_ BitVec 8))
(assert (let ((?v_0 (bvsub T4_132 (_ bv1 32)))) (let ((?v_26 (bvudiv (bvadd ?v_0 (_ bv580000000 32)) T4_132)) (?v_5 (bvudiv (bvadd ?v_0 (_ bv40000000 32)) T4_132)) (?v_1 (bvudiv (bvadd ?v_0 (_ bv20000000 32)) T4_132))) (let ((?v_17 (bvsub ?v_5 ?v_1))) (let ((?v_25 (bvadd ?v_17 ?v_1)) (?v_2 (bvudiv (_ bv0 32) T4_132))) (let ((?v_24 (bvule (_ bv0 32) ?v_2)) (?v_23 (bvule ?v_2 (_ bv0 32))) (?v_22 (bvudiv (_ bv600000000 32) T4_132)) (?v_21 (bvudiv (_ bv20000000 32) T4_132)) (?v_13 (bvudiv ?v_0 T4_132))) (let ((?v_19 (bvsub ?v_1 ?v_13))) (let ((?v_20 (bvadd ?v_19 ?v_13)) (?v_3 (bvult ?v_5 (_ bv0 32)))) (let ((?v_18 (bvsub ?v_2 ((_ zero_extend 24) (ite ?v_3 (_ bv1 8) (_ bv0 8))))) (?v_16 (bvsub ?v_1 (_ bv4294916639 32))) (?v_15 (bvadd ?v_2 (_ bv4294967295 32))) (?v_12 (bvsub ?v_2 ((_ zero_extend 24) (ite (bvult ?v_13 (_ bv0 32)) (_ bv1 8) (_ bv0 8))))) (?v_4 (bvsub ?v_2 ((_ zero_extend 24) (ite (bvult ?v_1 (_ bv0 32)) (_ bv1 8) (_ bv0 8)))))) (let ((?v_14 (bvadd (bvsub (bvsub ?v_4 ?v_12) ((_ zero_extend 24) (ite (bvult ?v_19 (_ bv0 32)) (_ bv1 8) (_ bv0 8)))) ?v_12)) (?v_7 (bvsub (bvsub ?v_18 ?v_4) ((_ zero_extend 24) (ite (bvult ?v_17 (_ bv0 32)) (_ bv1 8) (_ bv0 8)))))) (let ((?v_11 (bvadd ?v_7 ?v_4)) (?v_10 (bvadd (bvadd ?v_2 ?v_2) (_ bv4294967295 32))) (?v_9 (bvsub (_ bv0 32) ?v_2)) (?v_8 (bvadd ?v_4 ?v_7)) (?v_6 (bvadd (bvsub (bvsub ?v_4 (_ bv4294967295 32)) ((_ zero_extend 24) (ite (bvult ?v_16 (_ bv0 32)) (_ bv1 8) (_ bv0 8)))) ?v_7))) (and true (= T4_132 (bvor (bvshl (bvor (bvshl (bvor (bvshl ((_ zero_extend 24) T1_135) (_ bv8 32)) ((_ zero_extend 24) T1_134)) (_ bv8 32)) ((_ zero_extend 24) T1_133)) (_ bv8 32)) ((_ zero_extend 24) T1_132))) ?v_3 (bvsle (_ bv0 32) ?v_6) (bvsle ?v_6 (_ bv0 32)) (bvslt (_ bv4294967295 32) ?v_8) (bvsle (_ bv4294967295 32) ?v_8) (= (bvsub ?v_9 ((_ zero_extend 24) (ite (bvult ?v_9 (_ bv0 32)) (_ bv1 8) (_ bv0 8)))) (_ bv0 32)) (bvule (_ bv0 32) (bvadd (bvadd ?v_22 ?v_2) (_ bv4294967295 32))) (bvule (_ bv0 32) ?v_10) (bvule ?v_10 (_ bv0 32)) (bvule (bvadd ?v_21 (_ bv4294967295 32)) (_ bv99999998 32)) (bvsle (_ bv0 32) ?v_4) (bvsle ?v_4 (_ bv0 32)) (bvslt (_ bv4294967295 32) ?v_4) (bvsle ?v_11 ?v_4) (bvsle ?v_4 ?v_11) (bvsle (_ bv0 32) ?v_12) (bvsle ?v_12 (_ bv0 32)) (bvslt ?v_12 (_ bv423 32)) (bvsle ?v_12 (_ bv423 32)) (bvsle ?v_14 ?v_12) (bvsle ?v_12 ?v_14) (bvule (_ bv0 32) ?v_15) (bvule ?v_15 (_ bv0 32)) (bvult (_ bv0 32) (bvadd ?v_16 ?v_17)) (bvsle (_ bv0 32) ?v_18) (bvsle ?v_18 (_ bv0 32)) (bvule ?v_13 (_ bv0 32)) (not (= ?v_13 (bvudiv (bvadd ?v_20 ?v_13) (_ bv2 32)))) (bvule ?v_13 ?v_20) (bvule ?v_21 (_ bv200030 32)) (bvule (_ bv199970 32) ?v_21) (bvult ?v_21 (_ bv333303 32)) (bvult (_ bv166863 32) ?v_21) (not (= ?v_22 (_ bv0 32))) (bvult (_ bv0 32) ?v_22) ?v_23 ?v_24 ?v_23 ?v_24 (bvsle ?v_2 (_ bv0 32)) (bvsle (_ bv0 32) ?v_2) (bvult ?v_2 (_ bv2147483647 32)) (bvule (_ bv0 32) ?v_0) (not (= ?v_0 (_ bv0 32))) (bvult (_ bv0 32) ?v_1) (not (= ?v_1 (bvudiv (bvadd ?v_25 ?v_1) (_ bv2 32)))) (bvule ?v_1 ?v_25) (bvult (bvudiv (bvadd ?v_0 (_ bv400000000 32)) T4_132) ?v_26) (bvult (bvudiv (bvadd ?v_0 (_ bv380000000 32)) T4_132) ?v_26) (bvult (bvudiv (bvadd ?v_0 (_ bv360000000 32)) T4_132) ?v_26) (bvult (bvudiv (bvadd ?v_0 (_ bv340000000 32)) T4_132) ?v_26) (bvult (bvudiv (bvadd ?v_0 (_ bv320000000 32)) T4_132) ?v_26) (bvult (bvudiv (bvadd ?v_0 (_ bv300000000 32)) T4_132) ?v_26) (bvult (bvudiv (bvadd ?v_0 (_ bv280000000 32)) T4_132) ?v_26) (bvult (bvudiv (bvadd ?v_0 (_ bv260000000 32)) T4_132) ?v_26) (bvult (bvudiv (bvadd ?v_0 (_ bv240000000 32)) T4_132) ?v_26) (bvult (bvudiv (bvadd ?v_0 (_ bv220000000 32)) T4_132) ?v_26) (bvult (bvudiv (bvadd ?v_0 (_ bv200000000 32)) T4_132) ?v_26) (bvult (bvudiv (bvadd ?v_0 (_ bv180000000 32)) T4_132) ?v_26) (bvult (bvudiv (bvadd ?v_0 (_ bv160000000 32)) T4_132) ?v_26) (bvult (bvudiv (bvadd ?v_0 (_ bv140000000 32)) T4_132) ?v_26) (bvult (bvudiv (bvadd ?v_0 (_ bv120000000 32)) T4_132) ?v_26) (bvult (bvudiv (bvadd ?v_0 (_ bv100000000 32)) T4_132) ?v_26) (bvult (bvudiv (bvadd ?v_0 (_ bv80000000 32)) T4_132) ?v_26) (bvult (bvudiv (bvadd ?v_0 (_ bv60000000 32)) T4_132) ?v_26) (bvult ?v_1 ?v_26) (bvule (_ bv0 32) ?v_26) (bvult (_ bv0 32) ?v_26) (bvult (_ bv0 32) T4_132) (bvule (_ bv0 32) T4_132) (not (= T4_132 (_ bv0 32))) (bvult ?v_5 ?v_26)))))))))))))
(check-sat)
(exit)
